NAME : eil76.tour
COMMENT : best solution found for eil76 (552.0)
TYPE : TOUR 
DIMENSION : 76
TOUR_SECTION
10
52
13
58
65
64
30
54
24
49
17
23
48
22
55
40
42
41
63
21
61
27
60
20
46
35
68
70
59
69
19
36
4
14
56
12
53
18
7
34
6
66
25
11
39
16
50
5
67
74
75
3
33
45
51
26
44
28
47
29
73
1
32
72
0
62
15
2
43
31
8
38
71
57
9
37
-1
EOF